c --- [ banner ] -------------------------------------------------------------
c 
c CaDiCaL Radically Simplified CDCL SAT Solver
c Copyright (c) 2016-2021 A. Biere, M. Fleury, N. Froleyks
c 
c Version 1.5.2 9c38a080b32c28d805e8e6ca21849856b0cda605
c g++ (Ubuntu 7.5.0-3ubuntu1~18.04) 7.5.0 -Wall -Wextra -O3 -DNDEBUG
c Wed Feb 16 23:15:36 EST 2022 Linux fac-vanhoeve01 5.4.0-99-generic x86_64
c 
c --- [ limit ] --------------------------------------------------------------
c 
c setting time limit to 600 seconds real time (due to '-t 600')
c setting conflict limit to 1000000000 conflicts (due to '1000000000')
c 
c --- [ parsing input ] ------------------------------------------------------
c 
c reading DIMACS file from 'ddfwcnfs/queen12_12.col_12.cnf'
c opening file to read 'ddfwcnfs/queen12_12.col_12.cnf'
c found 'p cnf 1728 27468' header
c parsed 27468 clauses in 0.01 seconds process time
c closing file 'ddfwcnfs/queen12_12.col_12.cnf'
c after reading 349650 bytes 0.3 MB
c 
c --- [ options ] ------------------------------------------------------------
c 
c all options are set to their default value
c 
c --- [ solving ] ------------------------------------------------------------
c 
c time measured in process time since initialization
c 
c  seconds  reductions  redundant  irredundant
c         MB    restarts       trail     variables
c          level   conflicts       glue       remaining
c 
c *  0.01  6  0 0   0    0    0  0% 0 27324 1584 92%
c {  0.02  6  0 0   0    0    0  0% 0 27324 1584 92%
c -  0.03  6 11 1   0  300  117 30% 8 27324 1584 92%
c -  0.05  7 11 2  23  902  342 29% 8 27324 1584 92%
c }  0.05  7 11 2  25 1000  406 29% 8 27324 1584 92%
c [  0.05  7  0 2  25 1000  406  0% 0 27324 1584 92%
c O  0.05  7 24 2  25 1002  408 36% 11 27324 1584 92%
c -  0.07  7 16 3  25 1803  695 30% 11 27324 1584 92%
c ]  0.10  7 16 3  26 3001 1517 29% 12 27324 1584 92%
c {  0.10  7 11 3  26 3001 1517 29% 8 27324 1584 92%
c F  0.10  7 11 3  27 3003 1519 29% 8 27324 1584 92%
c -  0.10  7 11 4  27 3003 1107 29% 8 27324 1584 92%
c -  0.14  7 12 5 104 4504 1146 30% 9 27324 1584 92%
c #  0.19  7 11 5 204 6004 1879 30% 9 27324 1584 92%
c -  0.20  7 11 6 216 6304 1343 30% 9 27324 1584 92%
c }  0.21  7 11 6 237 7004 1735 30% 9 27324 1584 92%
c [  0.21  7 16 6 237 7004 1735 29% 12 27324 1584 92%
c s  0.25  8 19 6 238 8218 2286 30% 13 27324 1584 92%
c e  0.31  8 19 6 238 8218  156 30% 13 19480 1188 69%
c s  0.32  8 19 6 238 8218  153 30% 13 19480 1188 69%
c 
c  seconds  reductions  redundant   irredundant
c         MB    restarts       trail      variables
c          level   conflicts       glue        remaining
c 
c ^  0.32  8 19 6 238 8218  153 30% 13 19480 1188 69%
c -  0.33  8 19 7 238 8404  287 25% 13 19480 1188 69%
c I  0.37  8 21 7 239 10005 1535 25% 14 19480 1188 69%
c -  0.44  9 31 8 240 10806 2170 43% 18 19480 1188 69%
c -  0.70 10 45 9 242 13506 3236 63% 28 19480 1188 69%
c ]  0.88 10 50 9 242 15004 4644 67% 32 19480 1188 69%
c {  0.88 10 11 9 242 15004 4644 44% 9 19480 1188 69%
c B  0.88 10 11 9 243 15007 4646 44% 9 19480 1188 69%
c -  0.92  8 11 10 309 16506 3308 40% 9 19480 1188 69%
c -  1.00  9 11 11 441 19807 2601 35% 9 19480 1188 69%
c W  1.07  9 11 11 471 21008 3116 33% 9 19480 1188 69%
c -  1.16  9 13 12 663 23408 2994 34% 10 19480 1188 69%
c s  1.19  9 12 12 699 24360 2747 33% 10 19480 1188 69%
c s  1.23  9 12 12 699 24360 2399 33% 10 19480 1188 69%
c ^  1.23  9 12 12 699 24360 2399 33% 10 19480 1188 69%
c -  1.31  9 12 13 715 27309 2753 32% 9 19480 1188 69%
c F  1.33  9 12 13 730 28009 3155 32% 9 19480 1188 69%
c }  1.41  9 12 13 767 31006 4661 31% 9 19480 1188 69%
c [  1.41  9 50 13 767 31006 4661 67% 32 19480 1188 69%
c -  1.43  9 48 14 767 31512 3191 65% 31 19480 1188 69%
c 
c  seconds  reductions    redundant   irredundant
c         MB     restarts        trail      variables
c          level     conflicts       glue        remaining
c 
c B  1.57  9 41 14 770 36012 6323 49% 26 19480 1188 69%
c -  1.57  9 41 15 770 36012 4247 49% 26 19480 1188 69%
c -  1.99 11 52 16 773 40812 5546 59% 29 19480 1188 69%
c W  2.37 11 51 16 774 45013 9178 63% 30 19480 1188 69%
c -  2.45  9 50 17 775 45912 6092 64% 30 19480 1188 69%
c s  2.68  9 49 17 775 48573 8049 67% 30 19480 1188 69%
c w  2.70  9 49 17 775 48573 8048 67% 30 19480 1188 69%
c s  2.74  9 49 17 775 48573 7987 67% 30 19480 1188 69%
c ^  2.74  9 49 17 775 48573 7987 67% 30 19480 1188 69%
c -  3.01 11 48 18 775 51312 6543 68% 30 19480 1188 69%
c O  3.36 11 46 18 776 55014 9592 70% 29 19480 1188 69%
c -  3.53 12 45 19 778 57012 7197 71% 29 19480 1188 69%
c ]  4.04 12 43 19 782 63006 12394 73% 28 19480 1188 69%
c {  4.04 12 12 19 782 63006 12394 31% 9 19480 1188 69%
c -  4.05 12 12 20 783 63013 7504 31% 9 19480 1188 69%
c B  4.16 12 12 20 912 66016 9169 31% 10 19480 1188 69%
c -  4.35 12 14 21 1307 69313 5963 34% 11 19480 1188 69%
c -  4.90 12 20 22 2825 75915 7562 41% 14 19480 1188 69%
c W  5.01 12 20 22 2825 78018 8599 40% 13 19480 1188 69%
c s  5.24 12 22 22 3428 80858 10146 42% 14 19480 1188 69%
c 
c  seconds  reductions      redundant   irredundant
c         MB     restarts          trail      variables
c          level      conflicts        glue        remaining
c 
c w  5.26 12 22 22 3428 80858 10146 42% 14 19480 1188 69%
c s  5.30 12 22 22 3428 80858 9988 42% 14 19480 1188 69%
c ^  5.30 12 22 22 3428 80858 9988 42% 14 19480 1188 69%
c -  5.36 12 21 23 3428 82815 6096 42% 14 19480 1188 69%
c -  5.62 12 20 24 3584 90016 6372 40% 13 19480 1188 69%
c #  5.71 12 21 24 3839 91023 7329 41% 14 19480 1188 69%
c -  5.88 12 19 25 3849 97516 6395 39% 13 19480 1188 69%
c B  6.12 12 18 25 3871 105024 10855 36% 12 19480 1188 69%
c -  6.16 12 18 26 3941 105317 6784 37% 13 19480 1188 69%
c -  6.60 12 20 27 4854 113417 8208 38% 13 19480 1188 69%
c W  6.88 12 19 27 4884 120027 12527 37% 13 19480 1188 69%
c s  6.94 12 19 27 4884 121213 12156 37% 13 19480 1188 69%
c w  6.96 12 19 27 4884 121213 12154 37% 13 19480 1188 69%
c s  7.00 12 19 27 4884 121213 11811 37% 13 19480 1188 69%
c ^  7.00 12 19 27 4884 121213 11811 37% 13 19480 1188 69%
c -  7.03 12 19 28 4884 121818 7167 36% 13 19480 1188 69%
c }  7.21 12 18 28 4887 127006 10733 35% 12 19480 1188 69%
c [  7.21 12 43 28 4887 127006 10733 73% 28 19480 1188 69%
c -  7.34 12 41 29 4887 130518 8626 68% 27 19480 1188 69%
c B  7.55 12 38 29 4892 136028 12502 62% 25 19480 1188 69%
c 
c  seconds  reductions       redundant   irredundant
c         MB     restarts           trail      variables
c          level      conflicts         glue        remaining
c 
c -  7.83 14 41 30 4894 139518 10604 64% 26 19480 1188 69%
c -  8.78 15 42 31 4895 148820 11766 68% 27 19480 1188 69%
c W  9.30 15 42 31 4896 153029 15595 69% 28 19480 1188 69%
c -  9.93 13 42 32 4896 158420 12660 70% 28 19480 1188 69%
c - 11.02 15 43 33 4897 168320 13481 73% 29 19480 1188 69%
c s 11.16 15 43 33 4898 169638 13829 73% 29 19480 1188 69%
c w 11.19 15 43 33 4898 169638 13829 73% 29 19480 1188 69%
c s 11.23 15 43 33 4898 169638 13566 73% 29 19480 1188 69%
c I 11.38 15 43 33 4899 171030 14800 73% 30 19480 1188 69%
c - 12.23 17 52 34 4903 178522 13524 74% 33 19480 1188 69%
c - 13.66 16 56 35 4910 189025 13378 75% 37 19480 1188 69%
c B 13.79 16 56 35 4910 190033 14275 75% 37 19480 1188 69%
c - 14.77 15 59 36 4911 199826 14207 76% 37 19480 1188 69%
c W 16.13 15 57 36 4918 210034 23248 77% 36 19480 1188 69%
c - 16.27 17 57 37 4918 210927 14558 77% 36 19480 1188 69%
c - 17.50 17 54 38 4925 222327 14385 77% 35 19480 1188 69%
c O 18.42 17 52 38 4926 231035 21920 77% 35 19480 1188 69%
c - 18.73 17 51 39 4926 234028 14719 78% 34 19480 1188 69%
c - 20.07 17 49 40 4927 246029 14504 78% 34 19480 1188 69%
c B 20.82 17 47 40 4928 253037 20287 78% 33 19480 1188 69%
c 
c  seconds  reductions       redundant   irredundant
c         MB     restarts           trail      variables
c          level      conflicts         glue        remaining
c 
c ] 21.04 17 47 40 4928 255007 21970 78% 33 19480 1188 69%
c { 21.04 17 18 40 4928 255007 21970 35% 12 19480 1188 69%
c - 21.32 17 19 41 5436 258329 15427 37% 13 19480 1188 69%
c - 21.70 17 18 42 5439 270930 12048 35% 12 19480 1188 69%
c F 21.95 17 17 42 5636 276040 15300 34% 12 19480 1188 69%
c - 22.18 17 17 43 5679 283831 12360 33% 12 19480 1188 69%
c - 22.63 17 16 44 5714 297034 13048 32% 11 19480 1188 69%
c B 22.74 17 16 44 5732 300043 15011 32% 11 19480 1188 69%
c - 23.16 17 16 45 6255 310535 13535 32% 12 19480 1188 69%
c - 23.62 17 15 46 6393 324335 12379 31% 11 19480 1188 69%
c W 23.84 17 15 46 6393 325045 12771 31% 11 19480 1188 69%
c - 24.39 17 15 47 6752 338437 12425 30% 11 19480 1188 69%
c # 24.74 17 15 47 6881 351046 19806 30% 11 19480 1188 69%
c - 24.80 17 15 48 7163 352838 12903 29% 11 19480 1188 69%
c - 25.32 17 15 49 9210 367540 12018 29% 11 19480 1188 69%
c B 25.73 17 14 49 9306 378047 17102 29% 11 19480 1188 69%
c - 25.91 17 15 50 9555 382540 12060 29% 11 19480 1188 69%
c - 26.55 17 15 51 10323 397841 13481 30% 11 19480 1188 69%
c W 27.06 17 15 51 10357 406049 17734 30% 11 19480 1188 69%
c - 27.32 17 15 52 10454 413441 12689 29% 11 19480 1188 69%
c 
c  seconds  reductions        redundant   irredundant
c         MB      restarts           trail      variables
c          level       conflicts         glue        remaining
c 
c - 27.91 17 14 53 10579 429344 13797 29% 11 19480 1188 69%
c F 28.12 17 14 53 10589 435050 16722 29% 11 19480 1188 69%
c - 28.61 17 14 54 11268 445544 15060 30% 11 19480 1188 69%
c - 29.21 17 15 55 12151 462044 16151 29% 11 19480 1188 69%
c s 29.24 17 15 55 12151 462044 13445 29% 11 19480 1188 69%
c w 29.28 17 15 55 12151 462044 13435 29% 11 19480 1188 69%
c B 29.41 17 15 55 12440 465051 15129 29% 11 19480 1188 69%
c - 29.94 17 15 56 13199 478844 15119 30% 11 19480 1188 69%
c - 30.93 17 17 57 15093 495946 17326 32% 12 19480 1188 69%
c W 31.22 17 17 57 15120 496053 17431 33% 12 19480 1188 69%
c } 31.70 17 16 57 15309 511007 26365 32% 12 19480 1188 69%
c [ 31.70 17 47 57 15309 511007 26365 78% 33 19480 1188 69%
c - 31.81 17 47 58 15309 513347 15405 77% 32 19480 1188 69%
c W 33.27 17 48 58 15309 528054 27813 75% 31 19480 1188 69%
c - 33.60 17 47 59 15309 531047 20418 75% 31 19480 1188 69%
c - 35.62 21 45 60 15316 549047 22236 77% 31 19480 1188 69%
c I 37.19 21 44 60 15323 561055 33015 77% 31 19480 1188 69%
c - 38.06 23 55 61 15324 567348 23760 77% 34 19480 1188 69%
c - 40.24 24 64 62 15332 585948 23537 77% 38 19480 1188 69%
c B 41.45 24 63 62 15338 595057 31569 77% 38 19480 1188 69%
c 
c  seconds  reductions        redundant   irredundant
c         MB      restarts           trail      variables
c          level       conflicts         glue        remaining
c 
c - 42.59 20 66 63 15339 604851 24253 77% 38 19480 1188 69%
c - 44.91 25 62 64 15341 624052 24413 78% 37 19480 1188 69%
c W 46.04 25 61 64 15346 630058 29579 78% 37 19480 1188 69%
c - 48.27 25 58 65 15353 643557 25455 78% 36 19480 1188 69%
c - 51.23 25 54 66 15361 663357 26557 79% 35 19480 1188 69%
c O 51.59 25 53 66 15362 666059 28745 79% 35 19480 1188 69%
c - 52.28 25 48 67 15370 683458 21376 70% 31 19480 1188 69%
c B 53.22 25 44 67 15371 703062 35362 61% 29 19480 1188 69%
c - 53.30 25 45 68 15371 703860 20832 61% 29 19480 1188 69%
c - 55.64 26 49 69 15372 724560 24980 65% 31 19480 1188 69%
c W 58.29 26 50 69 15373 741066 40223 67% 31 19480 1188 69%
c - 59.07 26 49 70 15373 745562 26906 68% 32 19480 1188 69%
c - 62.16 26 48 71 15373 766863 27475 70% 32 19480 1188 69%
c I 63.92 26 47 71 15373 780067 38124 71% 32 19480 1188 69%
c - 65.09 33 62 72 15373 788464 27396 72% 37 19480 1188 69%
c s 65.12 33 62 72 15373 788464 25235 72% 37 19480 1188 69%
c w 65.20 33 62 72 15373 788464 25228 72% 37 19480 1188 69%
c - 68.52 36 78 73 15377 810366 28492 73% 45 19480 1188 69%
c B 70.21 36 81 73 15382 820070 37460 74% 48 19480 1188 69%
c - 71.68 33 78 74 15388 832568 28958 75% 47 19480 1188 69%
c 
c  seconds  reductions        redundant   irredundant
c         MB      restarts           trail      variables
c          level       conflicts         glue        remaining
c 
c - 75.09 26 73 75 15398 855070 28145 76% 45 19480 1188 69%
c W 76.41 26 71 75 15402 861072 32879 76% 44 19480 1188 69%
c - 78.93 28 67 76 15404 877871 27781 76% 43 19480 1188 69%
c - 81.40 28 62 77 15411 900972 28292 76% 40 19480 1188 69%
c O 81.59 28 61 77 15413 903073 30098 76% 40 19480 1188 69%
c - 84.10 28 56 78 15422 924373 28021 77% 38 19480 1188 69%
c B 87.61 28 52 78 15433 946074 46101 78% 36 19480 1188 69%
c - 87.93 32 52 79 15434 948074 29232 78% 36 19480 1188 69%
c - 91.30 32 48 80 15436 972074 30092 78% 34 19480 1188 69%
c W 94.66 32 46 80 15436 990075 45161 78% 33 19480 1188 69%
c - 95.79 32 45 81 15436 996374 31755 79% 33 19480 1188 69%
c - 99.68 33 44 82 15446 1020975 31952 79% 33 19480 1188 69%
c ] 100.02 33 44 82 15448 1023008 33733 79% 33 19480 1188 69%
c { 100.02 33 16 82 15448 1023008 33733 32% 12 19480 1188 69%
c # 100.42 33 16 82 15545 1035076 40577 31% 12 19480 1188 69%
c - 100.83 33 15 83 15699 1045875 24051 31% 11 19480 1188 69%
c - 101.91 33 14 84 15905 1071075 22011 30% 11 19480 1188 69%
c B 102.34 33 14 84 16014 1081077 27350 29% 11 19480 1188 69%
c - 103.08 33 15 85 17067 1096576 22780 31% 11 19480 1188 69%
c - 104.04 33 14 86 17491 1122376 21152 30% 11 19480 1188 69%
c 
c  seconds   reductions         redundant   irredundant
c          MB      restarts            trail      variables
c           level        conflicts         glue        remaining
c 
c W 104.92 33 14 86 17510 1128078 24160 30% 11 19480 1188 69%
c - 105.54 33 14 87 17832 1148478 21054 29% 11 19480 1188 69%
c - 106.44 33 13 88 18046 1174880 20979 28% 10 19480 1188 69%
c s 106.47 33 13 88 18046 1174880 16979 28% 10 19480 1188 69%
c w 106.52 33 13 88 18046 1174880 16974 28% 10 19480 1188 69%
c F 106.57 33 13 88 18054 1176079 17728 28% 10 19480 1188 69%
c - 107.36 33 13 89 18476 1201580 20388 27% 10 19480 1188 69%
c B 108.25 33 13 89 19368 1225081 32841 28% 10 19480 1188 69%
c - 108.64 33 14 90 20252 1228581 23186 29% 11 19480 1188 69%
c - 110.48 33 18 91 23952 1255882 28438 35% 12 19480 1188 69%
c W 112.30 33 18 91 25283 1275082 41773 36% 13 19480 1188 69%
c - 112.62 33 18 92 25283 1283483 26371 35% 12 19480 1188 69%
c - 113.78 33 16 93 25351 1311384 25220 32% 12 19480 1188 69%
c # 114.43 33 16 93 25426 1326085 33435 31% 12 19480 1188 69%
c - 114.89 33 15 94 25561 1339584 25799 30% 11 19480 1188 69%
c - 116.04 33 14 95 25876 1368085 25518 29% 11 19480 1188 69%
c B 116.43 33 14 95 25951 1378086 30804 28% 11 19480 1188 69%
c - 117.18 33 14 96 26593 1396885 25216 29% 11 19480 1188 69%
c - 118.30 33 13 97 27227 1425987 24152 28% 10 19480 1188 69%
c W 119.30 33 13 97 27277 1431088 27160 28% 10 19480 1188 69%
c 
c  seconds   reductions         redundant   irredundant
c          MB      restarts            trail      variables
c           level        conflicts         glue        remaining
c 
c - 120.37 33 13 98 27541 1455387 24647 27% 10 19480 1188 69%
c - 121.62 33 12 99 27807 1485088 24182 27% 10 19480 1188 69%
c F 121.62 33 12 99 27807 1485089 24183 27% 10 19480 1188 69%
c - 122.76 33 12 100 28307 1515089 26151 26% 10 19480 1188 69%
c B 123.75 33 12 100 29066 1540093 39184 26% 9 19480 1188 69%
c - 124.25 33 13 101 30121 1545393 26695 28% 10 19480 1188 69%
c - 125.24 33 12 102 30482 1575994 25291 27% 10 19480 1188 69%
c W 126.94 33 12 102 30840 1596096 35717 27% 10 19480 1188 69%
c - 127.45 33 12 103 31070 1606895 24356 27% 10 19480 1188 69%
c s 127.47 33 12 103 31070 1606895 19131 27% 10 19480 1188 69%
c w 127.51 33 12 103 31070 1606895 19130 27% 10 19480 1188 69%
c - 128.66 33 12 104 31757 1638095 22858 27% 9 19480 1188 69%
c # 129.22 33 11 104 32096 1653098 30250 26% 9 19480 1188 69%
c - 129.70 33 11 105 32556 1669597 24566 26% 9 19480 1188 69%
c - 130.91 33 12 106 34125 1701397 27459 27% 10 19480 1188 69%
c B 131.23 33 12 106 34375 1711101 32337 26% 9 19480 1188 69%
c - 132.55 33 15 107 36760 1733498 30031 30% 11 19480 1188 69%
c - 133.74 33 14 108 37342 1765899 26753 29% 10 19480 1188 69%
c W 134.84 33 14 108 37367 1770102 29182 29% 10 19480 1188 69%
c - 136.24 33 15 109 39223 1798600 30820 31% 11 19480 1188 69%
c 
c  seconds    reductions         redundant   irredundant
c          MB       restarts            trail      variables
c           level         conflicts         glue        remaining
c 
c F 137.54 33 15 109 40574 1830103 50423 32% 11 19480 1188 69%
c - 137.62 33 15 110 40582 1831601 30902 32% 11 19480 1188 69%
c - 138.74 33 14 111 40802 1864901 28456 30% 11 19480 1188 69%
c B 139.84 33 14 111 40939 1891104 41976 29% 10 19480 1188 69%
c - 140.34 33 14 112 41782 1898501 28192 30% 11 19480 1188 69%
c - 141.79 33 15 113 43318 1932402 30719 31% 11 19480 1188 69%
c W 143.88 33 16 113 45284 1953107 43908 32% 12 19480 1188 69%
c - 144.34 33 16 114 45447 1966604 31116 31% 12 19480 1188 69%
c - 145.73 33 14 115 45713 2001106 28985 29% 11 19480 1188 69%
c # 146.41 33 14 115 46223 2016108 37840 29% 11 19480 1188 69%
c - 147.61 33 16 116 47805 2035906 32579 31% 12 19480 1188 69%
c } 148.23 33 17 116 48873 2047008 40647 33% 12 19480 1188 69%
c [ 148.23 33 44 116 48873 2047008 40647 79% 33 19480 1188 69%
c - 150.99 33 48 117 48883 2071006 40724 79% 34 19480 1188 69%
c s 151.01 33 48 117 48883 2071006 34091 79% 34 19480 1188 69%
c w 151.13 33 48 117 48883 2071006 34084 79% 34 19480 1188 69%
c I 152.13 33 49 117 48888 2080109 42470 79% 34 19480 1188 69%
c - 155.97 44 55 118 48892 2106408 42568 80% 38 19480 1188 69%
c - 163.28 44 56 119 48907 2142108 45584 80% 39 19480 1188 69%
c B 163.79 44 56 119 48907 2145110 48359 80% 39 19480 1188 69%
c 
c  seconds    reductions         redundant   irredundant
c          MB       restarts            trail      variables
c           level         conflicts         glue        remaining
c 
c - 170.63 33 53 120 48922 2178108 45110 81% 38 19480 1188 69%
c W 177.87 33 52 120 48924 2211111 74494 82% 37 19480 1188 69%
c - 178.57 43 51 121 48924 2214411 46090 82% 37 19480 1188 69%
c - 186.08 43 49 122 48925 2251013 46723 82% 36 19480 1188 69%
c O 191.68 43 48 122 48925 2278112 70368 82% 36 19480 1188 69%
c - 193.06 43 48 123 48925 2287913 48651 82% 35 19480 1188 69%
c - 199.82 43 45 124 48926 2325113 47933 82% 33 19480 1188 69%
c B 202.91 43 43 124 48926 2346113 67093 82% 32 19480 1188 69%
c - 205.36 43 45 125 48926 2362613 49032 82% 32 19480 1188 69%
c - 212.34 51 47 126 48926 2400415 50850 82% 33 19480 1188 69%
c W 216.15 51 47 126 48926 2415114 64763 82% 33 19480 1188 69%
c - 221.96 51 46 127 48933 2438516 51142 82% 33 19480 1188 69%
c - 230.69 51 43 128 48951 2476916 52457 82% 32 19480 1188 69%
c I 232.37 51 43 128 48955 2485116 59742 82% 32 19480 1188 69%
c - 237.97 45 66 129 48961 2515617 52473 82% 43 19480 1188 69%
c - 246.72 42 68 130 48979 2554617 49172 81% 45 19480 1188 69%
c B 247.07 42 69 130 48979 2556117 50550 81% 45 19480 1188 69%
c - 252.16 39 65 131 48989 2593917 48760 81% 43 19480 1188 69%
c s 252.22 39 65 131 48989 2593917 47198 81% 43 19480 1188 69%
c w 252.39 39 65 131 48989 2593917 47186 81% 43 19480 1188 69%
c 
c  seconds    reductions         redundant   irredundant
c          MB       restarts            trail      variables
c           level         conflicts         glue        remaining
c 
c W 259.83 39 61 131 48990 2628118 77261 81% 41 19480 1188 69%
c - 261.26 48 60 132 48995 2633517 50762 81% 41 19480 1188 69%
c - 269.43 48 54 133 49012 2673417 51069 81% 39 19480 1188 69%
c O 274.96 48 52 133 49020 2701121 74994 80% 37 19480 1188 69%
c - 276.81 48 51 134 49023 2713617 53527 80% 36 19480 1188 69%
c - 284.40 48 46 135 49042 2754119 50676 81% 34 19480 1188 69%
c B 287.94 48 44 135 49050 2775123 68076 81% 33 19480 1188 69%
c - 292.27 48 41 136 49052 2794919 50560 81% 32 19480 1188 69%
c - 301.39 48 38 137 49053 2836019 51548 81% 31 19480 1188 69%
c W 305.66 48 37 137 49053 2850124 63088 81% 30 19480 1188 69%
c - 310.86 48 37 138 49053 2877420 52500 80% 30 19480 1188 69%
c - 320.18 51 36 139 49068 2919120 53794 80% 30 19480 1188 69%
c I 321.59 51 36 139 49069 2926126 59492 80% 30 19480 1188 69%
c - 326.69 51 47 140 49084 2961123 53972 80% 35 19480 1188 69%
c B 335.78 51 51 140 49099 3003127 89872 79% 38 19480 1188 69%
c - 335.94 51 51 141 49099 3003425 53199 79% 38 19480 1188 69%
c - 344.30 51 53 142 49115 3046028 53894 79% 39 19480 1188 69%
c W 354.19 51 53 142 49116 3081128 84471 79% 40 19480 1188 69%
c - 356.26 51 53 143 49116 3088928 55915 79% 40 19480 1188 69%
c - 366.65 51 51 144 49137 3132129 57144 79% 39 19480 1188 69%
c 
c  seconds    reductions         redundant   irredundant
c          MB       restarts            trail      variables
c           level         conflicts         glue        remaining
c 
c s 366.74 51 51 144 49137 3132129 56588 79% 39 19480 1188 69%
c w 367.04 51 51 144 49137 3132129 56579 79% 39 19480 1188 69%
c O 373.33 51 50 144 49147 3160129 80599 80% 39 19480 1188 69%
c - 374.08 51 46 145 49148 3175630 54114 72% 35 19480 1188 69%
c - 376.82 51 38 146 49169 3219432 44341 55% 29 19480 1188 69%
c B 378.59 51 35 146 49177 3240131 58389 49% 27 19480 1188 69%
c - 381.16 51 45 147 49179 3263534 50365 55% 29 19480 1188 69%
c - 388.97 51 47 148 49180 3307935 54588 64% 31 19480 1188 69%
c W 393.56 51 46 148 49180 3321132 65471 66% 32 19480 1188 69%
c - 399.30 51 45 149 49180 3352635 55578 70% 32 19480 1188 69%
c - 407.81 51 43 150 49181 3397635 57332 74% 32 19480 1188 69%
c I 408.74 51 43 150 49181 3403134 62253 74% 32 19480 1188 69%
c - 415.87 73 102 151 49181 3442936 59603 76% 51 19480 1188 69%
c B 425.98 73 144 151 49181 3486136 100980 78% 64 19480 1188 69%
c - 426.49 75 144 152 49181 3488538 61045 78% 63 19480 1188 69%
c - 434.56 52 114 153 49182 3534440 58462 80% 56 19480 1188 69%
c W 444.05 52 96 153 49182 3570137 91130 80% 52 19480 1188 69%
c - 446.79 65 92 154 49182 3580640 60443 81% 51 19480 1188 69%
c - 457.88 65 78 155 49182 3627141 60676 81% 48 19480 1188 69%
c O 463.90 65 72 155 49182 3655138 85809 81% 47 19480 1188 69%
c 
c  seconds    reductions         redundant   irredundant
c          MB       restarts            trail      variables
c           level         conflicts         glue        remaining
c 
c - 465.05 65 63 156 49182 3673941 60129 72% 42 19480 1188 69%
c - 471.47 65 64 157 49182 3721041 59540 75% 37 19480 1188 69%
c s 471.56 65 64 157 49182 3721041 56973 75% 37 19480 1188 69%
c w 471.76 65 64 157 49182 3721041 56971 75% 37 19480 1188 69%
c B 474.88 65 60 157 49182 3741139 74889 76% 36 19480 1188 69%
c - 478.69 65 69 158 49190 3768441 61613 77% 38 19480 1188 69%
c - 487.76 70 58 159 49212 3816142 59168 79% 35 19480 1188 69%
c W 492.91 70 56 159 49213 3828142 69646 79% 35 19480 1188 69%
c - 503.59 70 50 160 49228 3864142 61023 80% 34 19480 1188 69%
c - 515.62 70 45 161 49244 3912443 61047 81% 32 19480 1188 69%
c I 516.22 70 44 161 49244 3916143 64229 81% 32 19480 1188 69%
c - 525.09 80 95 162 49250 3961043 62705 81% 51 19480 1188 69%
c B 535.08 80 82 162 49271 4005145 102596 81% 47 19480 1188 69%
c - 535.96 80 82 163 49274 4009943 62074 81% 47 19480 1188 69%
c - 545.44 80 78 164 49290 4059143 62224 81% 48 19480 1188 69%
c ] 556.03 80 72 164 49305 4095010 94825 81% 47 19480 1188 69%
c { 556.03 80 17 164 49305 4095010 94825 33% 12 19480 1188 69%
c B 556.17 80 17 164 49337 4095146 94954 33% 12 19480 1188 69%
c - 557.76 80 18 165 50495 4108644 64375 34% 12 19480 1188 69%
c - 560.10 80 15 166 50710 4158445 47486 30% 11 19480 1188 69%
c 
c  seconds    reductions         redundant   irredundant
c          MB       restarts            trail      variables
c           level         conflicts         glue        remaining
c 
c W 563.58 80 15 166 51346 4186148 62585 30% 11 19480 1188 69%
c - 564.51 80 14 167 51569 4208545 41780 29% 11 19480 1188 69%
c - 566.66 80 13 168 52570 4258945 40097 27% 11 19480 1188 69%
c F 567.24 80 13 168 52760 4278151 50713 27% 10 19480 1188 69%
c - 568.33 80 12 169 52992 4309646 40332 26% 10 19480 1188 69%
c - 570.48 80 12 170 53962 4360647 41425 26% 10 19480 1188 69%
c s 570.56 80 12 170 53962 4360647 32808 26% 10 19480 1188 69%
c w 570.63 80 12 170 53962 4360647 32802 26% 10 19480 1188 69%
c B 571.06 80 12 170 54204 4371153 38275 26% 9 19480 1188 69%
c - 572.41 80 11 171 55181 4411949 37812 26% 9 19480 1188 69%
c - 574.81 80 11 172 56526 4463551 41255 25% 9 19480 1188 69%
c W 577.73 80 11 172 56889 4465154 42704 26% 9 19480 1188 69%
c - 580.22 80 13 173 60106 4515453 47835 29% 10 19480 1188 69%
c # 581.59 80 12 173 61145 4560156 70656 28% 10 19480 1188 69%
c - 582.11 80 13 174 62259 4567655 43792 29% 10 19480 1188 69%
c - 584.86 80 16 175 66354 4620155 47844 33% 12 19480 1188 69%
c B 586.26 80 15 175 66675 4656158 68577 31% 11 19480 1188 69%
c - 587.88 80 17 176 69104 4672957 48846 35% 12 19480 1188 69%
c - 589.92 80 15 177 69468 4726058 43432 32% 11 19480 1188 69%
c W 593.80 80 15 177 70219 4753159 58373 31% 11 19480 1188 69%
c 
c  seconds    reductions         redundant   irredundant
c          MB       restarts            trail      variables
c           level         conflicts         glue        remaining
c 
c - 594.91 80 14 178 70742 4779459 42923 30% 11 19480 1188 69%
c - 597.26 80 14 179 72864 4833159 44955 30% 11 19480 1188 69%
c F 597.91 80 14 179 74635 4851160 55250 29% 11 19480 1188 69%
c - 599.38 80 13 180 74906 4887160 46148 27% 10 19480 1188 69%
c } 599.98 80 13 180 75003 4900083 53021 27% 10 19480 1188 69%
c ? 599.98 80 13 180 75003 4900083 53021 27% 10 19480 1188 69%
c 
c --- [ result ] -------------------------------------------------------------
c 
c UNKNOWN
c 
c --- [ run-time profiling ] -------------------------------------------------
c 
c process time taken by individual solving procedures
c (percentage relative to process time for solving)
c 
c       593.32   98.89% search
c       471.38   78.57% stable
c        90.94   15.16% unstable
c        31.00    5.17% walk
c         6.64    1.11% simplify
c         3.30    0.55% probe
c         1.11    0.18% vivify
c         0.54    0.09% subsume
c         0.51    0.08% ternary
c         0.12    0.02% elim
c         0.01    0.00% parse
c         0.00    0.00% lucky
c   =================================
c       599.97  100.00% solve
c 
c last line shows process time for solving
c (percentage relative to total process time)
c 
c --- [ statistics ] ---------------------------------------------------------
c 
c chronological:            747871        15.26 %  of conflicts
c conflicts:               4900083      8167.26    per second
c decisions:               7129935     11883.88    per second
c eliminated:                  396        22.92 %  of all variables
c fixed:                       144         8.33 %  of all variables
c learned:                 4845816        98.89 %  per conflict
c learned_lits:          362853573       100.00 %  learned literals
c minimized:                     0         0.00 %  learned literals
c shrunken:              149487527        41.20 %  learned literals
c minishrunken:           29453926         8.12 %  learned literals
c propagations:          522337086         0.87 M  per second
c reduced:                 3548715        72.42 %  per conflict
c rephased:                     98     50000.85    interval
c restarts:                  75003        65.33    interval
c stabilizing:                   6        55.71 %  of conflicts
c subsumed:                1241885        12.73 %  of all clauses
c strengthened:              20537         0.21 %  of all clauses
c vivified:                    520         0.01 %  of all clauses
c walked:                       31    158067.19    interval
c weakened:                  11536         2.35    average size
c 
c seconds are measured in process time for solving
c 
c --- [ resources ] ----------------------------------------------------------
c 
c total process time since initialization:       599.98    seconds
c total real time since initialization:          600.00    seconds
c maximum resident set size of process:           96.52    MB
c 
c --- [ shutting down ] ------------------------------------------------------
c 
c exit 0
